kommentar    
   5.490700041 
 0.000000000000  0.500000000000  0.500000000000 
 0.500000000000  0.000000000000  0.500000000000 
 0.500000000000  0.500000000000  0.000000000000 
Si 
2 
direct coordinates
 0.000000000000  0.000000000000  0.000000000000 site:1 
 0.250000000000  0.250000000000  0.250000000000 site:2 
